Composite laminae lay-up inside the blade section

*************************** TOP SURFACE ****************************
5                N_scts(1):  no of sectors on top surface

normalized chord location of  nodes defining airfoil sectors boundaries (xsec_node)
0.0000   0.0346   0.2963   0.5037   0.9654   1.0000   
...........................................................................
Sect_num    no of laminae (N_laminas)          STACK:045000_LP_LE
1             3             

lamina    num of  thickness   fibers_direction  composite_material ID
number    plies   of ply (m)       (deg)               (-)
lam_num  N_plies    Tply         Tht_lam            Mat_id
  1        1      5.000e-05       0.0           1 (Gelcoat)
  2        3      9.400e-04       0.0           3 (SNL(Triax))
  3        3      9.400e-04       0.0           3 (SNL(Triax))
...........................................................................
Sect_num    no of laminae (N_laminas)          STACK:045000_LP_LE_PANEL
2             4             

lamina    num of  thickness   fibers_direction  composite_material ID
number    plies   of ply (m)       (deg)               (-)
lam_num  N_plies    Tply         Tht_lam            Mat_id
  1        1      5.000e-05       0.0           1 (Gelcoat)
  2        3      9.400e-04       0.0           3 (SNL(Triax))
  3        20      1.000e-03       0.0           5 (FOAM)
  4        3      9.400e-04       0.0           3 (SNL(Triax))
...........................................................................
Sect_num    no of laminae (N_laminas)          STACK:045000_LP_CAP
3             4             

lamina    num of  thickness   fibers_direction  composite_material ID
number    plies   of ply (m)       (deg)               (-)
lam_num  N_plies    Tply         Tht_lam            Mat_id
  1        1      5.000e-05       0.0           1 (Gelcoat)
  2        3      9.400e-04       0.0           3 (SNL(Triax))
  3        52      4.700e-04       0.0           6 (Carbon(UD))
  4        3      9.400e-04       0.0           3 (SNL(Triax))
...........................................................................
Sect_num    no of laminae (N_laminas)          STACK:045000_LP_TE_PANEL
4             4             

lamina    num of  thickness   fibers_direction  composite_material ID
number    plies   of ply (m)       (deg)               (-)
lam_num  N_plies    Tply         Tht_lam            Mat_id
  1        1      5.000e-05       0.0           1 (Gelcoat)
  2        3      9.400e-04       0.0           3 (SNL(Triax))
  3        20      1.000e-03       0.0           5 (FOAM)
  4        3      9.400e-04       0.0           3 (SNL(Triax))
...........................................................................
Sect_num    no of laminae (N_laminas)          STACK:045000_LP_TE
5             3             

lamina    num of  thickness   fibers_direction  composite_material ID
number    plies   of ply (m)       (deg)               (-)
lam_num  N_plies    Tply         Tht_lam            Mat_id
  1        1      5.000e-05       0.0           1 (Gelcoat)
  2        3      9.400e-04       0.0           3 (SNL(Triax))
  3        3      9.400e-04       0.0           3 (SNL(Triax))


*************************** BOTTOM SURFACE ****************************
5                N_scts(1):  no of sectors on top surface

normalized chord location of  nodes defining airfoil sectors boundaries (xsec_node)
-0.0000   0.0346   0.2963   0.5037   0.9654   1.0000   
...........................................................................
Sect_num    no of laminae (N_laminas)          STACK:045000_HP_LE
1             3             

lamina    num of  thickness   fibers_direction  composite_material ID
number    plies   of ply (m)       (deg)               (-)
lam_num  N_plies    Tply         Tht_lam            Mat_id
  1        1      5.000e-05       0.0           1 (Gelcoat)
  2        3      9.400e-04       0.0           3 (SNL(Triax))
  3        3      9.400e-04       0.0           3 (SNL(Triax))
...........................................................................
Sect_num    no of laminae (N_laminas)          STACK:045000_HP_LE_PANEL
2             4             

lamina    num of  thickness   fibers_direction  composite_material ID
number    plies   of ply (m)       (deg)               (-)
lam_num  N_plies    Tply         Tht_lam            Mat_id
  1        1      5.000e-05       0.0           1 (Gelcoat)
  2        3      9.400e-04       0.0           3 (SNL(Triax))
  3        20      1.000e-03       0.0           5 (FOAM)
  4        3      9.400e-04       0.0           3 (SNL(Triax))
...........................................................................
Sect_num    no of laminae (N_laminas)          STACK:045000_HP_CAP
3             4             

lamina    num of  thickness   fibers_direction  composite_material ID
number    plies   of ply (m)       (deg)               (-)
lam_num  N_plies    Tply         Tht_lam            Mat_id
  1        1      5.000e-05       0.0           1 (Gelcoat)
  2        3      9.400e-04       0.0           3 (SNL(Triax))
  3        52      4.700e-04       0.0           6 (Carbon(UD))
  4        3      9.400e-04       0.0           3 (SNL(Triax))
...........................................................................
Sect_num    no of laminae (N_laminas)          STACK:045000_HP_TE_PANEL
4             4             

lamina    num of  thickness   fibers_direction  composite_material ID
number    plies   of ply (m)       (deg)               (-)
lam_num  N_plies    Tply         Tht_lam            Mat_id
  1        1      5.000e-05       0.0           1 (Gelcoat)
  2        3      9.400e-04       0.0           3 (SNL(Triax))
  3        20      1.000e-03       0.0           5 (FOAM)
  4        3      9.400e-04       0.0           3 (SNL(Triax))
...........................................................................
Sect_num    no of laminae (N_laminas)          STACK:045000_HP_TE
5             3             

lamina    num of  thickness   fibers_direction  composite_material ID
number    plies   of ply (m)       (deg)               (-)
lam_num  N_plies    Tply         Tht_lam            Mat_id
  1        1      5.000e-05       0.0           1 (Gelcoat)
  2        3      9.400e-04       0.0           3 (SNL(Triax))
  3        3      9.400e-04       0.0           3 (SNL(Triax))


**********************************************************************
Laminae schedule for webs (input required only if webs exist at this section):

web_num    no of laminae (N_weblams)    Name of stack: 045000_SW2
1            3            

lamina    num of  thickness   fibers_direction  composite_material ID
number    plies   of ply (m)       (deg)               (-)
wlam_num N_Plies   w_tply       Tht_Wlam            Wmat_Id
  1        2      1.000e-03       0.0           4 (Saertex(DB))
  2        40      1.000e-03       0.0           5 (FOAM)
  3        2      1.000e-03       0.0           4 (Saertex(DB))

web_num    no of laminae (N_weblams)    Name of stack: 045000_SW1
2            3            

lamina    num of  thickness   fibers_direction  composite_material ID
number    plies   of ply (m)       (deg)               (-)
wlam_num N_Plies   w_tply       Tht_Wlam            Wmat_Id
  1        2      1.000e-03       0.0           4 (Saertex(DB))
  2        40      1.000e-03       0.0           5 (FOAM)
  3        2      1.000e-03       0.0           4 (Saertex(DB))
